(set-logic QF_S)
(declare-fun var0 () String)
(declare-fun var1 () Int)
(declare-fun var2 () Bool)
(declare-fun var3 () String)
(declare-fun var4 () Int)
(declare-fun var5 () Bool)
(declare-fun var6 () String)
(declare-fun var7 () Int)
(declare-fun var8 () Bool)
(assert (<= (str.indexof (str.at var6 var7) (str.at var6 var4) (str.len var6)) (str.indexof var6 var0 var4)))
(assert (str.in.re (str.from.int var7) (re.+ re.allchar)))
(assert (>= (str.indexof var0 var0 var1) (str.len var6)))
(assert (>= (str.len var3) (str.indexof var3 var3 var4)))
(check-sat)